Quantum_Annealing_TSP/20cities.tsp
NAME: Konstantinos Kiriazis
TYPE: TSP
COMMENT: 20 cities in 4 clusters
DIMENSION: 20
EDGE_WEIGHT_TYPE: EUC_2D
NODE_COORD_SECTION
1   10  10
2   12  11
3   11  14
4   13   9
5    9  12
6   40  40
7   41  43
8   39  42
9   42  39
10  38  41
11  70  10
12  73  11
13  75   9
14  72  13
15  71   8
16  20  70
17  22  73
18  18  69
19  21  72
20  19  68
EOF