Quantum_Annealing_TSP/20cities.tsp.tour
NAME : 20cities.tsp.tour
COMMENT : Found by Enhanced Quantum Annealing
TYPE : TOUR
DIMENSION : 20
TOUR_SECTION
17
7
8
10
6
9
14
12
13
15
11
4
2
1
5
3
20
18
16
19
-1
EOF
